
Gurobi 9.5.1 (linux64) logging started Tue Jun  7 14:48:04 2022

Set parameter LogFile to value "../results/logs/log_CA-HepPh_4_3_2022_06_07_14_43.log"
Gurobi Optimizer version 9.5.1 build v9.5.1rc2 (linux64)
Thread count: 8 physical cores, 8 logical processors, using up to 8 threads
Optimize a model with 1269 rows, 24012 columns and 13543 nonzeros
Model fingerprint: 0xc0cd95ea
Variable types: 0 continuous, 24012 integer (24012 binary)
Coefficient statistics:
  Matrix range     [1e+00, 4e+00]
  Objective range  [1e+00, 1e+00]
  Bounds range     [1e+00, 1e+00]
  RHS range        [1e+00, 3e+00]
Found heuristic solution: objective 6591.0000000
Presolve removed 558 rows and 22947 columns
Presolve time: 0.05s
Presolved: 711 rows, 1065 columns, 3410 nonzeros
Found heuristic solution: objective 6594.0000000
Variable types: 0 continuous, 1065 integer (953 binary)

Root relaxation: objective 6.688214e+03, 607 iterations, 0.00 seconds (0.00 work units)

    Nodes    |    Current Node    |     Objective Bounds      |     Work
 Expl Unexpl |  Obj  Depth IntInf | Incumbent    BestBd   Gap | It/Node Time

     0     0 6688.21370    0  105 6594.00000 6688.21370  1.43%     -    0s
H    0     0                    6601.0000000 6688.21370  1.32%     -    0s
H    0     0                    6602.0000000 6688.21370  1.31%     -    0s
H    0     0                    6605.0000000 6685.40418  1.22%     -    0s
     0     0 6606.83333    0   22 6605.00000 6606.83333  0.03%     -    0s
H    0     0                    6606.0000000 6606.83333  0.01%     -    0s
     0     0 6606.00000    0   14 6606.00000 6606.00000  0.00%     -    0s

Cutting planes:
  Gomory: 39
  Cover: 6
  Implied bound: 1
  MIR: 44
  StrongCG: 2
  GUB cover: 49
  Zero half: 7
  RLT: 6
  Relax-and-lift: 1

Explored 1 nodes (743 simplex iterations) in 0.13 seconds (0.08 work units)
Thread count was 8 (of 8 available processors)

Solution count 6: 6606 6605 6602 ... 6591

Optimal solution found (tolerance 0.00e+00)
Best objective 6.606000000000e+03, best bound 6.606000000000e+03, gap 0.0000%
